53
52
50
49
54
52
56
51
58
53
53
58
60
56
53
53
54
54
60
58
55
59
64
57
65
54
52
49
52
57
58
53
50
54
50
51
57
52
56
57
51
53
61
58
62
58
64
62
50
53
52
48
47
49
52
52
51
58
52
55
51
57
58
52
55
56
55
58
58
58
60
55
386
2099
24434
5547
61
987
54
480
59
12608
283
54
13354
